p tw 40 84
0 1
0 14
0 3
0 29
1 10
1 25
1 30
1 31
1 7
1 9
2 3
2 10
2 31
2 12
2 29
2 35
2 20
2 28
3 27
4 5
4 22
4 36
5 12
5 10
5 32
6 7
6 29
6 8
6 27
7 24
7 15
7 21
7 9
8 9
8 11
8 19
8 26
8 28
8 31
8 27
9 10
9 21
10 30
10 19
11 27
11 36
12 22
12 20
12 33
12 29
12 24
13 14
13 20
14 23
14 34
14 35
14 33
15 16
15 19
17 18
17 33
17 34
18 28
20 34
20 37
20 35
20 24
21 22
21 30
21 31
22 31
22 26
22 24
22 27
23 37
23 36
25 29
25 28
27 28
28 31
31 34
31 38
31 39
36 37
